
Gurobi 11.0.0 (linux64) logging started Fri Apr 12 13:51:46 2024

Set parameter LogFile to value "/lustre1/scratch/348/vsc34888/JointResearch/05.Models/06.Benchmarking/K.Investments_per_hour/RTS24_ByStages_nc10/openStarNet_RTS24_ByStages_nc10.log"
Set parameter Method to value 2
Set parameter MIPFocus to value 1
Set parameter Presolve to value 2
Set parameter RINS to value 100
Set parameter MIPGap to value 0.01
Set parameter Threads to value 36
Set parameter TimeLimit to value 259200
Set parameter IterationLimit to value 760000000
Gurobi Optimizer version 11.0.0 build v11.0.0rc2 (linux64 - "Rocky Linux 8.8 (Green Obsidian)")

CPU model: Intel(R) Xeon(R) Gold 6240 CPU @ 2.60GHz, instruction set [SSE2|AVX|AVX2|AVX512]
Thread count: 36 physical cores, 36 logical processors, using up to 36 threads

Optimize a model with 3893 rows, 2314 columns and 10261 nonzeros
Model fingerprint: 0xf2227afc
Variable types: 2284 continuous, 30 integer (30 binary)
Coefficient statistics:
  Matrix range     [3e-02, 2e+03]
  Objective range  [1e+00, 1e+00]
  Bounds range     [4e-04, 2e+00]
  RHS range        [4e-04, 2e+00]
Presolve removed 2093 rows and 1074 columns
Presolve time: 0.02s
Presolved: 1800 rows, 1240 columns, 6330 nonzeros
Variable types: 1210 continuous, 30 integer (30 binary)
Found heuristic solution: objective 356.5557318
Root relaxation presolved: 1800 rows, 1240 columns, 6330 nonzeros

Root barrier log...

Ordering time: 0.03s

Barrier statistics:
 AA' NZ     : 3.373e+04
 Factor NZ  : 1.887e+05 (roughly 3 MB of memory)
 Factor Ops : 2.960e+07 (less than 1 second per iteration)
 Threads    : 36

                  Objective                Residual
Iter       Primal          Dual         Primal    Dual     Compl     Time
   0   1.96535318e+06 -2.03531838e+07  1.58e+01 7.82e+02  3.20e+04     0s
   1   4.86647753e+05 -1.01283240e+07  3.78e+00 6.37e-11  7.30e+03     0s
   2   1.03527776e+05 -5.26869951e+06  7.91e-01 1.60e-10  2.08e+03     0s
   3   1.25719963e+04 -7.74145422e+05  1.33e-12 6.13e-11  2.06e+02     0s
   4   4.28433399e+03 -2.84843822e+04  7.82e-14 7.28e-12  8.60e+00     0s
   5   6.03558774e+02 -2.17198869e+03  1.40e-13 3.64e-12  7.28e-01     0s
   6   4.37918063e+02 -5.01673060e+02  1.27e-13 3.64e-12  2.47e-01     0s
   7   3.56549886e+02 -1.13995687e+01  7.99e-14 3.64e-12  9.66e-02     0s
   8   2.80860947e+02  1.67278586e+02  1.06e-13 3.64e-12  2.98e-02     0s
   9   2.69333677e+02  2.11794973e+02  2.25e-13 3.64e-12  1.51e-02     0s
  10   2.55325615e+02  2.30426489e+02  4.61e-13 7.28e-12  6.54e-03     0s
  11   2.47597309e+02  2.41253196e+02  4.25e-13 3.64e-12  1.67e-03     0s
  12   2.44980980e+02  2.42800040e+02  4.94e-12 3.64e-12  5.72e-04     0s
  13   2.43817443e+02  2.43374310e+02  8.94e-11 7.28e-12  1.16e-04     0s
  14   2.43709784e+02  2.43507697e+02  7.78e-11 3.64e-12  5.30e-05     0s
  15   2.43601556e+02  2.43560013e+02  1.88e-11 7.28e-12  1.09e-05     0s
  16   2.43580859e+02  2.43569093e+02  4.58e-11 3.64e-12  3.09e-06     0s
  17   2.43574630e+02  2.43573498e+02  2.28e-10 9.09e-13  2.97e-07     0s
  18   2.43574373e+02  2.43574314e+02  5.32e-10 7.28e-12  1.55e-08     0s
  19   2.43574343e+02  2.43574343e+02  2.76e-10 3.64e-12  8.55e-11     0s

Barrier solved model in 19 iterations and 0.32 seconds (0.07 work units)
Optimal objective 2.43574343e+02


Root relaxation: objective 2.435743e+02, 247 iterations, 0.26 seconds (0.04 work units)

    Nodes    |    Current Node    |     Objective Bounds      |     Work
 Expl Unexpl |  Obj  Depth IntInf | Incumbent    BestBd   Gap | It/Node Time

     0     0  243.57434    0   17  356.55573  243.57434  31.7%     -    0s
     0     0  245.23558    0   11  356.55573  245.23558  31.2%     -    0s
H    0     0                     321.4846119  245.28453  23.7%     -    0s
     0     0  245.28453    0   12  321.48461  245.28453  23.7%     -    0s
     0     0  245.30941    0   12  321.48461  245.30941  23.7%     -    0s
     0     0  245.30941    0   13  321.48461  245.30941  23.7%     -    0s
     0     0  245.64043    0   14  321.48461  245.64043  23.6%     -    0s
     0     0  245.67238    0   12  321.48461  245.67238  23.6%     -    0s
     0     0  245.75224    0   12  321.48461  245.75224  23.6%     -    0s
     0     0  245.75224    0   12  321.48461  245.75224  23.6%     -    0s
     0     0  246.00228    0   13  321.48461  246.00228  23.5%     -    0s
H    0     0                     309.9664954  246.00955  20.6%     -    0s
     0     0  246.00955    0   13  309.96650  246.00955  20.6%     -    0s
     0     0  247.11525    0   12  309.96650  247.11525  20.3%     -    0s
H    0     0                     306.3665954  247.27136  19.3%     -    0s
     0     0  247.27136    0   12  306.36660  247.27136  19.3%     -    0s
H    0     0                     304.0587317  247.73191  18.5%     -    0s
     0     0  247.73191    0   12  304.05873  247.73191  18.5%     -    0s
H    0     0                     272.7610142  247.73191  9.18%     -    1s
     0     2  247.73191    0   12  272.76101  247.73191  9.18%     -    1s
H  100   135                     270.0298815  251.29724  6.94%  56.3    2s
H  102   135                     269.7031552  251.33482  6.81%  55.6    2s
H  139   164                     269.5628163  251.73039  6.62%  55.3    3s
H  183   196                     269.5628163  251.81533  6.58%  48.7    3s
  1499   504  257.68239   11   10  269.56282  253.56729  5.93%  36.5    5s

Cutting planes:
  Gomory: 6
  Implied bound: 11
  MIR: 63
  Relax-and-lift: 10

Explored 8245 nodes (217545 simplex iterations) in 8.55 seconds (9.71 work units)
Thread count was 36 (of 36 available processors)

Solution count 9: 269.563 269.703 270.03 ... 356.556

Optimal solution found (tolerance 1.00e-02)
Best objective 2.695628162881e+02, best bound 2.669253339102e+02, gap 0.9784%

Gurobi 11.0.0 (linux64) logging started Fri Apr 12 13:51:55 2024

Set parameter LogFile to value "/lustre1/scratch/348/vsc34888/JointResearch/05.Models/06.Benchmarking/K.Investments_per_hour/RTS24_ByStages_nc10/openStarNet_RTS24_ByStages_nc10.log"
Set parameter Method to value 2
Set parameter MIPFocus to value 1
Set parameter Presolve to value 2
Set parameter RINS to value 100
Set parameter MIPGap to value 0.01
Set parameter Threads to value 36
Set parameter TimeLimit to value 259200
Set parameter IterationLimit to value 760000000
Gurobi Optimizer version 11.0.0 build v11.0.0rc2 (linux64 - "Rocky Linux 8.8 (Green Obsidian)")

CPU model: Intel(R) Xeon(R) Gold 6240 CPU @ 2.60GHz, instruction set [SSE2|AVX|AVX2|AVX512]
Thread count: 36 physical cores, 36 logical processors, using up to 36 threads

Optimize a model with 3893 rows, 2284 columns and 9031 nonzeros
Model fingerprint: 0xdab7a55a
Coefficient statistics:
  Matrix range     [3e-02, 2e+03]
  Objective range  [1e+00, 1e+00]
  Bounds range     [4e-04, 2e+00]
  RHS range        [4e-04, 4e+01]
Presolve removed 3338 rows and 1344 columns
Presolve time: 0.01s
Presolved: 555 rows, 955 columns, 2525 nonzeros

Ordering time: 0.00s

Barrier statistics:
 AA' NZ     : 1.417e+03
 Factor NZ  : 4.664e+03
 Factor Ops : 6.296e+04 (less than 1 second per iteration)
 Threads    : 1

                  Objective                Residual
Iter       Primal          Dual         Primal    Dual     Compl     Time
   0   2.84000827e+06 -1.22501389e+07  1.49e+01 5.72e+03  1.14e+05     0s
   1   1.68327568e+05 -9.29955978e+06  7.99e-01 5.42e-11  1.09e+04     0s
   2   5.08821304e+04 -2.62757952e+06  1.65e-01 8.12e-11  2.18e+03     0s
   3   2.65770167e+04 -4.10113006e+05  2.53e-02 2.91e-11  3.01e+02     0s
   4   9.79104876e+03 -5.19898193e+04  8.34e-04 2.91e-11  3.97e+01     0s
   5   1.31139148e+03 -3.28485972e+03  4.42e-05 3.66e-10  2.94e+00     0s
   6   5.19227959e+02 -1.19595015e+03  8.95e-07 1.56e-10  1.10e+00     0s
   7   3.92582577e+02 -3.53536995e+02  6.71e-08 6.46e-11  4.78e-01     0s
   8   3.21354609e+02  1.35460827e+02  1.05e-08 1.43e-11  1.19e-01     0s
   9   2.83149684e+02  2.44247798e+02  2.66e-09 1.46e-11  2.49e-02     0s
  10   2.75727196e+02  2.63599664e+02  1.17e-09 7.28e-12  7.76e-03     0s
  11   2.71675833e+02  2.68406895e+02  3.87e-10 1.46e-11  2.09e-03     0s
  12   2.69677968e+02  2.69097204e+02  8.62e-12 7.28e-12  3.72e-04     0s
  13   2.69563202e+02  2.69562014e+02  1.43e-12 1.46e-11  7.61e-07     0s
  14   2.69562817e+02  2.69562816e+02  8.47e-13 7.28e-12  7.61e-10     0s
  15   2.69562816e+02  2.69562816e+02  1.96e-12 1.46e-11  7.61e-13     0s

Barrier solved model in 15 iterations and 0.02 seconds (0.01 work units)
Optimal objective 2.69562816e+02

Crossover log...

     104 DPushes remaining with DInf 0.0000000e+00                 0s

      44 PPushes remaining with PInf 0.0000000e+00                 0s
       0 PPushes remaining with PInf 0.0000000e+00                 0s

  Push phase complete: Pinf 0.0000000e+00, Dinf 2.2551305e-12      0s

Iteration    Objective       Primal Inf.    Dual Inf.      Time
      47    2.6956282e+02   0.000000e+00   0.000000e+00      0s

Use crossover to convert LP symmetric solution to basic solution...
Crossover log...

      21 PPushes remaining with PInf 0.0000000e+00                 0s
       0 PPushes remaining with PInf 0.0000000e+00                 0s

  Push phase complete: Pinf 0.0000000e+00, Dinf 2.3254534e-12      0s

Iteration    Objective       Primal Inf.    Dual Inf.      Time
      71    2.6956282e+02   0.000000e+00   0.000000e+00      0s

Solved in 71 iterations and 0.02 seconds (0.01 work units)
Optimal objective  2.695628163e+02
